words_easy_train/words_89_SAT.qaiger
aag 60 16 0 1 44
2
14
16
18
22
30
28
10
32
20
26
24
4
8
12
6
121
34 8 6
36 34 10
38 36 12
40 37 13
42 41 29
44 30 15
46 31 14
48 47 45
50 48 43
52 51 39
54 40 28
56 25 9
58 24 8
60 59 57
62 61 23
64 33 17
66 32 16
68 67 65
70 68 47
72 71 63
74 72 55
76 74 53
78 69 45
80 79 29
82 81 38
84 20 4
86 21 5
88 87 85
90 22 6
92 19 2
94 18 3
96 95 93
98 96 91
100 60 7
102 101 98
104 102 89
106 35 11
108 107 37
110 108 26
112 109 27
114 113 111
116 115 104
118 116 83
120 118 76
i0 1 x1[0]
i1 1 x1[6]
i2 1 x1[7]
i3 2 y2[0]
i4 2 y2[2]
i5 2 y2[6]
i6 2 y2[5]
i7 1 x1[4]
i8 2 y2[7]
i9 2 y2[1]
i10 2 y2[4]
i11 2 y2[3]
i12 1 x1[1]
i13 1 x1[3]
i14 1 x1[5]
i15 1 x1[2]
o0 bool[0]
c
simplified
  !=
    add
      1 x1
      << 1
        -254
    2 y2
