words_easy_train/words_89_SAT.qaiger.qdimacs
p cnf 60 133
a 1 2 3 4 5 6 7 8 0
e 9 10 11 12 13 14 15 16 17 18 19 20 21 22 23 24 25 26 27 28 29 30 31 32 33 34 35 36 37 38 39 40 41 42 43 44 45 46 47 48 49 50 51 52 53 54 55 56 57 58 59 60 0
-4 -3 17 0
4 -17 0
3 -17 0
-17 -5 18 0
17 -18 0
5 -18 0
-18 -6 19 0
18 -19 0
6 -19 0
18 6 20 0
-18 -20 0
-6 -20 0
20 14 21 0
-20 -21 0
-14 -21 0
-15 7 22 0
15 -22 0
-7 -22 0
15 -7 23 0
-15 -23 0
7 -23 0
23 22 24 0
-23 -24 0
-22 -24 0
-24 21 25 0
24 -25 0
-21 -25 0
25 19 26 0
-25 -26 0
-19 -26 0
-20 -14 27 0
20 -27 0
14 -27 0
12 4 28 0
-12 -28 0
-4 -28 0
-12 -4 29 0
12 -29 0
4 -29 0
29 28 30 0
-29 -30 0
-28 -30 0
30 11 31 0
-30 -31 0
-11 -31 0
16 8 32 0
-16 -32 0
-8 -32 0
-16 -8 33 0
16 -33 0
8 -33 0
33 32 34 0
-33 -34 0
-32 -34 0
-34 23 35 0
34 -35 0
-23 -35 0
35 31 36 0
-35 -36 0
-31 -36 0
-36 27 37 0
36 -37 0
-27 -37 0
-37 26 38 0
37 -38 0
-26 -38 0
34 22 39 0
-34 -39 0
-22 -39 0
39 14 40 0
-39 -40 0
-14 -40 0
40 -19 41 0
-40 -41 0
19 -41 0
-10 -2 42 0
10 -42 0
2 -42 0
10 2 43 0
-10 -43 0
-2 -43 0
43 42 44 0
-43 -44 0
-42 -44 0
-11 -3 45 0
11 -45 0
3 -45 0
9 -1 46 0
-9 -46 0
1 -46 0
-9 1 47 0
9 -47 0
-1 -47 0
47 46 48 0
-47 -48 0
-46 -48 0
-48 45 49 0
48 -49 0
-45 -49 0
-30 3 50 0
30 -50 0
-3 -50 0
50 -49 51 0
-50 -51 0
49 -51 0
-51 44 52 0
51 -52 0
-44 -52 0
17 5 53 0
-17 -53 0
-5 -53 0
53 18 54 0
-53 -54 0
-18 -54 0
-54 -13 55 0
54 -55 0
13 -55 0
54 13 56 0
-54 -56 0
-13 -56 0
56 55 57 0
-56 -57 0
-55 -57 0
57 -52 58 0
-57 -58 0
52 -58 0
-58 41 59 0
58 -59 0
-41 -59 0
-59 -38 60 0
59 -60 0
38 -60 0
-60 0
